Route #1: 2 48 38 9 16 32 34 19 15 49 46
Route #2: 13 26 22 17 50 12 23
Route #3: 4 45 14 39 21 11 28 24 31 3
Route #4: 37 47 10 44 6 36 25 41
Route #5: 40 42 20 18 30 1
Route #6: 29 27 8 5 51
Route #7: 35 33 7 43
Cost 757